kaleidocrypt/implementation/com.kaleidoscope.usecase.kaleidocrypt.emoflon/gurobi.log

Gurobi 7.0.2 (linux64, Java) logging started Thu 13 Apr 2017 05:50:07 PM CEST


Gurobi 7.0.2 (linux64, Java) logging started Thu 13 Apr 2017 05:54:28 PM CEST


Gurobi 7.0.2 (linux64, Java) logging started Thu 13 Apr 2017 05:56:02 PM CEST


Gurobi 7.0.2 (linux64, Java) logging started Thu 13 Apr 2017 05:57:10 PM CEST


Gurobi 7.0.2 (linux64, Java) logging started Thu 13 Apr 2017 05:58:02 PM CEST

